benchmarks_CP/INST_49x49/50/inst49x49_50_7.dzn
S=7;
start=[|
-1,	20,	-1,	3,	-1,	16,	39,	-1,	-1,	-1,	-1,	-1,	-1,	-1,	-1,	-1,	-1,	-1,	-1,	18,	-1,	-1,	-1,	15,	-1,	25,	22,	10,	49,	13,	14,	21,	-1,	31,	-1,	9,	29,	-1,	45,	5,	24,	-1,	-1,	-1,	17,	38,	11,	-1,	30|
38,	-1,	-1,	-1,	23,	25,	-1,	19,	-1,	-1,	-1,	-1,	39,	3,	17,	-1,	-1,	-1,	35,	21,	-1,	42,	47,	36,	40,	48,	24,	30,	-1,	-1,	11,	43,	16,	20,	-1,	32,	26,	-1,	13,	-1,	44,	8,	-1,	45,	18,	49,	-1,	14,	-1|
-1,	45,	22,	-1,	-1,	8,	-1,	38,	33,	-1,	30,	13,	-1,	21,	5,	-1,	-1,	-1,	-1,	-1,	-1,	-1,	-1,	-1,	43,	28,	-1,	-1,	-1,	35,	-1,	-1,	19,	44,	-1,	-1,	12,	34,	42,	-1,	-1,	37,	1,	-1,	6,	4,	31,	-1,	25|
17,	-1,	13,	18,	-1,	-1,	32,	9,	31,	-1,	4,	-1,	-1,	-1,	-1,	-1,	-1,	-1,	22,	6,	-1,	-1,	-1,	-1,	-1,	20,	-1,	-1,	-1,	-1,	-1,	25,	15,	-1,	24,	3,	46,	-1,	43,	-1,	38,	-1,	10,	-1,	-1,	-1,	40,	28,	2|
-1,	-1,	28,	-1,	-1,	36,	-1,	23,	41,	25,	32,	-1,	-1,	1,	-1,	-1,	39,	-1,	8,	47,	46,	13,	-1,	-1,	31,	-1,	-1,	45,	-1,	-1,	10,	-1,	33,	-1,	2,	-1,	-1,	30,	-1,	35,	14,	21,	-1,	29,	43,	-1,	-1,	-1,	27|
-1,	-1,	43,	-1,	-1,	5,	15,	-1,	-1,	-1,	17,	49,	-1,	-1,	19,	-1,	13,	-1,	-1,	-1,	40,	-1,	-1,	-1,	-1,	-1,	-1,	27,	30,	6,	-1,	18,	3,	1,	-1,	-1,	-1,	39,	11,	-1,	-1,	-1,	-1,	7,	-1,	35,	42,	8,	47|
-1,	46,	-1,	-1,	21,	-1,	7,	-1,	-1,	-1,	-1,	18,	-1,	-1,	-1,	43,	-1,	-1,	31,	38,	-1,	-1,	-1,	11,	-1,	-1,	17,	-1,	-1,	-1,	5,	42,	-1,	-1,	47,	-1,	16,	33,	-1,	19,	2,	4,	9,	-1,	13,	-1,	-1,	-1,	39|
-1,	-1,	11,	16,	38,	-1,	-1,	-1,	36,	47,	41,	3,	-1,	43,	-1,	-1,	46,	-1,	-1,	-1,	-1,	6,	-1,	23,	20,	-1,	-1,	12,	-1,	-1,	-1,	-1,	27,	-1,	33,	14,	-1,	44,	1,	-1,	-1,	13,	28,	25,	-1,	48,	-1,	15,	40|
-1,	47,	-1,	33,	18,	27,	25,	-1,	-1,	40,	10,	-1,	13,	-1,	7,	49,	-1,	-1,	-1,	-1,	1,	-1,	39,	-1,	44,	15,	5,	16,	11,	-1,	-1,	-1,	46,	-1,	-1,	-1,	-1,	3,	-1,	-1,	-1,	-1,	-1,	-1,	-1,	8,	-1,	26,	20|
15,	-1,	-1,	-1,	-1,	39,	-1,	32,	-1,	-1,	11,	19,	-1,	-1,	-1,	-1,	25,	31,	48,	42,	-1,	43,	37,	-1,	-1,	-1,	36,	-1,	29,	-1,	-1,	-1,	41,	28,	-1,	-1,	2,	46,	18,	-1,	-1,	24,	-1,	6,	47,	30,	27,	21,	22|
-1,	-1,	-1,	-1,	-1,	-1,	5,	21,	39,	-1,	-1,	-1,	-1,	-1,	16,	-1,	-1,	14,	6,	11,	-1,	-1,	-1,	-1,	-1,	31,	8,	-1,	45,	40,	-1,	3,	44,	13,	-1,	-1,	-1,	27,	38,	26,	-1,	-1,	-1,	23,	-1,	-1,	-1,	-1,	-1|
-1,	14,	-1,	31,	28,	12,	-1,	-1,	42,	-1,	-1,	-1,	45,	15,	-1,	-1,	-1,	20,	23,	41,	-1,	27,	3,	21,	-1,	-1,	-1,	-1,	-1,	10,	-1,	-1,	-1,	6,	43,	8,	-1,	11,	48,	-1,	19,	5,	-1,	-1,	9,	13,	-1,	39,	-1|
-1,	41,	19,	-1,	-1,	46,	-1,	-1,	23,	-1,	6,	37,	44,	27,	-1,	-1,	-1,	28,	34,	15,	13,	29,	-1,	-1,	-1,	-1,	30,	9,	-1,	-1,	-1,	-1,	39,	38,	20,	-1,	-1,	10,	-1,	21,	12,	45,	49,	11,	33,	31,	2,	3,	17|
-1,	-1,	3,	-1,	8,	-1,	23,	2,	14,	28,	-1,	-1,	-1,	20,	-1,	24,	12,	-1,	5,	40,	-1,	-1,	-1,	42,	-1,	19,	11,	-1,	-1,	21,	22,	31,	25,	-1,	36,	-1,	47,	-1,	41,	7,	-1,	-1,	-1,	-1,	4,	34,	45,	-1,	16|
36,	25,	-1,	-1,	29,	26,	4,	-1,	-1,	-1,	22,	15,	-1,	18,	46,	6,	-1,	35,	-1,	-1,	-1,	-1,	-1,	43,	9,	-1,	-1,	28,	-1,	49,	38,	-1,	-1,	-1,	1,	-1,	-1,	-1,	47,	-1,	-1,	3,	-1,	-1,	7,	37,	-1,	13,	-1|
-1,	-1,	21,	-1,	14,	-1,	-1,	6,	16,	3,	13,	-1,	26,	33,	-1,	17,	18,	-1,	-1,	2,	-1,	-1,	-1,	-1,	-1,	-1,	-1,	-1,	-1,	36,	-1,	-1,	12,	-1,	-1,	-1,	44,	23,	-1,	-1,	-1,	32,	25,	31,	15,	10,	49,	-1,	24|
11,	8,	-1,	45,	-1,	28,	-1,	12,	-1,	-1,	-1,	-1,	24,	-1,	-1,	-1,	49,	41,	-1,	43,	32,	47,	1,	2,	36,	10,	-1,	-1,	-1,	27,	13,	-1,	40,	-1,	-1,	-1,	-1,	-1,	30,	-1,	-1,	-1,	-1,	-1,	14,	-1,	9,	-1,	-1|
-1,	33,	-1,	-1,	30,	19,	22,	-1,	-1,	5,	-1,	-1,	-1,	28,	24,	-1,	27,	-1,	47,	25,	8,	37,	-1,	34,	-1,	-1,	3,	38,	15,	18,	-1,	11,	-1,	-1,	-1,	2,	40,	21,	20,	9,	-1,	16,	-1,	-1,	-1,	-1,	-1,	36,	32|
39,	3,	-1,	7,	47,	17,	6,	-1,	-1,	10,	36,	8,	14,	-1,	-1,	1,	28,	12,	13,	-1,	-1,	26,	-1,	-1,	-1,	18,	42,	11,	-1,	20,	-1,	-1,	24,	30,	-1,	-1,	25,	35,	-1,	-1,	-1,	-1,	-1,	-1,	-1,	19,	-1,	38,	-1|
-1,	18,	-1,	-1,	-1,	40,	-1,	-1,	-1,	11,	47,	-1,	9,	25,	14,	10,	48,	-1,	33,	-1,	20,	22,	-1,	30,	5,	6,	16,	32,	-1,	29,	35,	-1,	-1,	39,	21,	-1,	41,	-1,	-1,	24,	-1,	15,	43,	-1,	28,	-1,	44,	27,	8|
-1,	13,	-1,	35,	5,	-1,	-1,	-1,	7,	38,	31,	-1,	23,	-1,	34,	-1,	37,	-1,	39,	-1,	-1,	33,	48,	-1,	-1,	46,	-1,	4,	-1,	28,	26,	-1,	-1,	25,	-1,	-1,	-1,	36,	-1,	11,	17,	10,	3,	47,	20,	-1,	41,	-1,	12|
-1,	12,	29,	8,	36,	45,	-1,	-1,	-1,	-1,	37,	27,	7,	42,	-1,	-1,	47,	-1,	41,	31,	23,	25,	9,	-1,	32,	11,	4,	-1,	-1,	44,	-1,	-1,	-1,	19,	10,	28,	33,	48,	-1,	-1,	-1,	-1,	17,	30,	-1,	14,	46,	43,	6|
27,	-1,	10,	39,	-1,	18,	-1,	-1,	-1,	-1,	-1,	-1,	46,	-1,	-1,	-1,	-1,	6,	-1,	26,	28,	-1,	42,	-1,	19,	-1,	43,	40,	5,	-1,	-1,	-1,	35,	16,	30,	-1,	-1,	14,	-1,	-1,	1,	25,	20,	2,	-1,	41,	-1,	11,	-1|
-1,	-1,	-1,	9,	-1,	41,	-1,	18,	-1,	34,	-1,	-1,	-1,	-1,	-1,	-1,	15,	17,	-1,	13,	-1,	-1,	20,	22,	-1,	35,	47,	-1,	-1,	33,	-1,	-1,	-1,	12,	8,	-1,	-1,	40,	-1,	-1,	-1,	2,	27,	32,	-1,	-1,	38,	31,	-1|
20,	26,	-1,	28,	-1,	-1,	2,	35,	30,	45,	5,	-1,	-1,	19,	8,	7,	-1,	1,	14,	22,	-1,	10,	29,	39,	-1,	-1,	-1,	33,	-1,	-1,	41,	-1,	6,	-1,	-1,	-1,	9,	18,	-1,	-1,	3,	49,	-1,	-1,	-1,	-1,	25,	-1,	48|
23,	22,	-1,	-1,	6,	-1,	-1,	-1,	3,	-1,	12,	-1,	4,	24,	9,	-1,	-1,	38,	45,	33,	2,	46,	14,	-1,	18,	-1,	41,	36,	25,	-1,	-1,	-1,	29,	-1,	-1,	15,	-1,	-1,	27,	-1,	-1,	-1,	-1,	-1,	-1,	26,	1,	35,	19|
-1,	-1,	-1,	-1,	-1,	-1,	-1,	10,	40,	36,	14,	-1,	-1,	-1,	35,	46,	-1,	44,	18,	-1,	27,	-1,	28,	26,	-1,	24,	49,	-1,	-1,	38,	-1,	9,	4,	15,	45,	-1,	22,	20,	-1,	-1,	6,	41,	-1,	34,	-1,	39,	7,	-1,	33|
-1,	40,	33,	-1,	13,	14,	47,	-1,	-1,	-1,	-1,	-1,	8,	32,	-1,	42,	43,	-1,	25,	39,	-1,	31,	45,	-1,	37,	-1,	-1,	2,	3,	-1,	-1,	26,	-1,	-1,	-1,	24,	-1,	19,	-1,	30,	29,	-1,	-1,	-1,	-1,	44,	-1,	-1,	18|
-1,	-1,	-1,	-1,	-1,	-1,	28,	20,	-1,	18,	24,	41,	34,	10,	49,	9,	-1,	37,	44,	12,	5,	-1,	19,	46,	4,	32,	25,	23,	-1,	-1,	40,	36,	-1,	35,	29,	-1,	27,	47,	3,	-1,	45,	14,	31,	-1,	-1,	-1,	-1,	-1,	-1|
-1,	39,	-1,	11,	-1,	-1,	46,	-1,	-1,	1,	48,	-1,	-1,	-1,	-1,	21,	-1,	-1,	43,	-1,	24,	18,	-1,	-1,	-1,	-1,	-1,	-1,	-1,	15,	-1,	-1,	-1,	-1,	9,	-1,	32,	37,	-1,	-1,	34,	19,	2,	44,	36,	7,	23,	12,	41|
-1,	49,	-1,	-1,	9,	44,	36,	42,	-1,	31,	-1,	17,	-1,	-1,	41,	-1,	-1,	45,	15,	20,	-1,	-1,	12,	47,	-1,	37,	48,	-1,	-1,	16,	2,	-1,	14,	-1,	18,	-1,	6,	5,	40,	-1,	-1,	-1,	32,	38,	-1,	28,	-1,	-1,	-1|
40,	-1,	37,	5,	41,	22,	20,	-1,	-1,	23,	-1,	-1,	43,	-1,	1,	25,	11,	-1,	42,	-1,	-1,	16,	6,	35,	-1,	34,	21,	-1,	-1,	-1,	47,	49,	-1,	8,	38,	36,	24,	7,	33,	39,	18,	-1,	13,	-1,	-1,	27,	-1,	-1,	-1|
-1,	32,	47,	48,	-1,	3,	18,	33,	-1,	-1,	-1,	2,	36,	5,	-1,	13,	26,	46,	7,	35,	38,	-1,	11,	9,	8,	29,	45,	41,	23,	-1,	24,	-1,	34,	-1,	-1,	-1,	42,	43,	22,	20,	31,	30,	4,	17,	-1,	40,	-1,	49,	21|
-1,	-1,	-1,	-1,	19,	-1,	13,	22,	49,	46,	-1,	40,	-1,	-1,	39,	-1,	-1,	23,	-1,	-1,	-1,	1,	-1,	-1,	-1,	-1,	26,	-1,	-1,	31,	27,	41,	-1,	32,	6,	17,	21,	-1,	16,	25,	9,	12,	-1,	18,	-1,	-1,	47,	-1,	43|
10,	24,	1,	-1,	-1,	-1,	12,	13,	32,	-1,	-1,	-1,	-1,	11,	-1,	-1,	36,	47,	-1,	-1,	14,	-1,	49,	-1,	-1,	-1,	28,	42,	20,	45,	19,	44,	43,	-1,	39,	-1,	48,	2,	8,	-1,	41,	23,	-1,	5,	-1,	-1,	-1,	-1,	3|
3,	-1,	35,	-1,	-1,	20,	-1,	-1,	29,	-1,	-1,	-1,	-1,	36,	26,	31,	21,	48,	-1,	-1,	19,	32,	33,	25,	-1,	-1,	-1,	6,	28,	46,	-1,	-1,	-1,	37,	-1,	-1,	-1,	17,	-1,	-1,	-1,	-1,	-1,	39,	-1,	-1,	-1,	5,	-1|
28,	-1,	-1,	43,	37,	9,	-1,	25,	-1,	-1,	23,	12,	48,	34,	-1,	22,	41,	-1,	-1,	-1,	11,	44,	8,	-1,	-1,	-1,	20,	17,	7,	-1,	-1,	-1,	-1,	-1,	-1,	-1,	5,	-1,	-1,	40,	-1,	38,	35,	-1,	27,	-1,	-1,	32,	31|
-1,	-1,	-1,	-1,	-1,	-1,	-1,	40,	24,	42,	-1,	5,	-1,	41,	-1,	-1,	-1,	43,	32,	49,	4,	-1,	35,	-1,	3,	-1,	31,	-1,	10,	25,	6,	16,	-1,	27,	14,	-1,	-1,	1,	34,	-1,	48,	11,	-1,	21,	46,	22,	-1,	-1,	26|
-1,	-1,	40,	-1,	15,	23,	-1,	-1,	11,	16,	-1,	-1,	-1,	13,	-1,	-1,	8,	2,	12,	29,	6,	-1,	30,	41,	24,	-1,	-1,	47,	36,	-1,	48,	39,	-1,	-1,	-1,	-1,	19,	42,	-1,	22,	7,	-1,	-1,	-1,	-1,	9,	-1,	-1,	37|
-1,	6,	18,	12,	-1,	11,	-1,	31,	8,	37,	-1,	39,	15,	4,	47,	20,	7,	13,	3,	34,	25,	-1,	-1,	28,	-1,	5,	-1,	49,	-1,	42,	-1,	-1,	-1,	-1,	35,	10,	-1,	-1,	-1,	-1,	21,	-1,	-1,	40,	-1,	43,	-1,	-1,	-1|
4,	5,	46,	22,	-1,	-1,	48,	-1,	-1,	27,	-1,	21,	-1,	-1,	-1,	45,	-1,	-1,	-1,	44,	9,	-1,	26,	-1,	11,	43,	2,	-1,	19,	-1,	20,	-1,	31,	23,	-1,	37,	-1,	32,	-1,	-1,	-1,	-1,	-1,	-1,	-1,	-1,	17,	-1,	49|
49,	38,	26,	-1,	-1,	13,	33,	-1,	-1,	-1,	9,	44,	-1,	-1,	37,	39,	5,	-1,	-1,	17,	-1,	40,	10,	-1,	-1,	-1,	-1,	-1,	18,	11,	12,	2,	-1,	-1,	-1,	41,	31,	-1,	24,	45,	30,	20,	36,	8,	19,	-1,	-1,	-1,	-1|
-1,	30,	32,	47,	12,	38,	42,	-1,	15,	43,	3,	-1,	-1,	23,	25,	-1,	6,	-1,	-1,	-1,	-1,	-1,	-1,	14,	-1,	26,	-1,	22,	1,	8,	-1,	4,	21,	-1,	17,	-1,	-1,	9,	-1,	2,	33,	29,	39,	49,	24,	20,	-1,	-1,	44|
-1,	-1,	49,	-1,	-1,	-1,	41,	36,	1,	-1,	-1,	7,	-1,	26,	15,	47,	30,	-1,	-1,	-1,	48,	-1,	-1,	20,	33,	9,	-1,	39,	-1,	14,	-1,	-1,	37,	-1,	-1,	-1,	38,	-1,	10,	42,	27,	-1,	19,	13,	-1,	46,	-1,	-1,	-1|
-1,	28,	-1,	-1,	-1,	-1,	-1,	27,	-1,	17,	-1,	-1,	-1,	-1,	29,	-1,	-1,	-1,	-1,	10,	-1,	-1,	43,	-1,	-1,	30,	-1,	-1,	35,	47,	-1,	22,	45,	46,	42,	26,	-1,	-1,	-1,	-1,	4,	-1,	8,	9,	-1,	2,	32,	-1,	-1|
26,	-1,	-1,	-1,	-1,	10,	21,	-1,	-1,	2,	-1,	-1,	12,	38,	-1,	-1,	35,	4,	-1,	-1,	43,	-1,	31,	1,	42,	45,	-1,	18,	6,	19,	-1,	27,	-1,	7,	-1,	34,	-1,	25,	-1,	44,	5,	-1,	29,	22,	41,	23,	30,	-1,	15|
-1,	36,	7,	-1,	-1,	15,	17,	-1,	-1,	39,	-1,	24,	-1,	-1,	-1,	32,	9,	22,	-1,	-1,	-1,	-1,	4,	13,	-1,	-1,	37,	19,	31,	-1,	3,	-1,	2,	-1,	-1,	-1,	30,	28,	14,	-1,	-1,	47,	21,	-1,	-1,	42,	12,	-1,	45|
-1,	-1,	27,	2,	-1,	34,	43,	41,	-1,	4,	28,	-1,	-1,	22,	3,	-1,	42,	-1,	-1,	-1,	-1,	-1,	25,	-1,	-1,	-1,	15,	-1,	39,	-1,	9,	-1,	-1,	-1,	44,	-1,	-1,	-1,	23,	8,	11,	-1,	-1,	14,	26,	5,	-1,	-1,	38|
-1,	-1,	8,	-1,	22,	4,	-1,	-1,	-1,	30,	-1,	33,	-1,	-1,	-1,	38,	-1,	-1,	-1,	46,	-1,	-1,	36,	44,	-1,	16,	10,	-1,	24,	-1,	-1,	-1,	-1,	-1,	-1,	35,	39,	41,	-1,	32,	40,	17,	48,	-1,	31,	11,	43,	47,	28|];
