sudoku-ls/benchmarks_LEQ/INST_49x49/50/inst49x49_50_7.txt
7
1
37	-1	41	-1	48	-1	-1	47	43	-1	-1	-1	-1	35	32	-1	34	26	28	18	-1	12	2	15	-1	25	-1	10	49	-1	14	-1	36	31	4	9	29	-1	-1	-1	24	40	-1	-1	17	38	-1	23	-1
-1	-1	-1	4	-1	25	-1	-1	-1	6	-1	28	39	3	17	-1	29	-1	35	21	41	42	-1	-1	-1	48	-1	-1	-1	9	11	43	-1	-1	7	-1	-1	22	-1	15	-1	8	-1	45	-1	-1	34	-1	46
-1	-1	22	-1	2	-1	-1	-1	33	-1	30	13	-1	21	5	3	20	49	-1	-1	-1	14	16	18	43	28	29	46	-1	-1	-1	-1	19	-1	-1	27	12	34	-1	48	36	-1	-1	-1	-1	-1	-1	-1	-1
17	-1	-1	-1	42	-1	-1	9	-1	48	-1	-1	16	-1	23	11	-1	-1	22	6	37	-1	-1	-1	39	20	-1	34	8	26	29	-1	15	-1	-1	-1	-1	-1	43	-1	38	-1	10	-1	-1	21	-1	-1	-1
-1	-1	-1	49	11	36	19	23	41	25	32	42	40	-1	4	-1	39	16	8	-1	-1	13	-1	6	-1	-1	9	45	38	-1	10	37	-1	22	2	7	-1	30	-1	35	-1	-1	26	-1	-1	15	-1	44	-1
-1	9	43	14	-1	-1	-1	-1	-1	29	17	-1	-1	-1	19	2	13	-1	-1	24	-1	21	-1	-1	26	4	44	27	30	-1	46	18	-1	-1	-1	20	-1	39	-1	-1	-1	-1	16	-1	48	-1	42	-1	47
-1	46	-1	-1	-1	-1	7	-1	-1	-1	26	18	-1	12	-1	43	-1	-1	-1	38	-1	8	-1	-1	-1	49	17	37	40	41	-1	-1	-1	-1	47	-1	-1	33	-1	19	2	-1	9	-1	13	-1	3	-1	-1
21	37	11	16	-1	-1	-1	4	-1	-1	41	-1	-1	-1	-1	-1	46	-1	-1	-1	39	-1	22	23	-1	2	7	12	26	-1	-1	-1	27	-1	33	-1	34	44	-1	31	32	-1	-1	-1	-1	-1	-1	-1	40
34	47	-1	33	-1	27	25	48	-1	-1	10	29	-1	31	7	49	-1	-1	-1	-1	-1	-1	-1	4	44	15	5	-1	-1	2	23	14	46	-1	19	30	-1	-1	-1	-1	22	6	24	35	-1	-1	-1	-1	-1
15	-1	-1	-1	10	-1	-1	-1	38	-1	-1	19	5	-1	-1	-1	-1	31	-1	-1	3	-1	-1	45	-1	13	36	1	-1	4	-1	-1	41	28	12	-1	2	46	18	-1	-1	-1	14	6	47	30	-1	-1	-1
-1	2	36	24	-1	-1	-1	-1	-1	-1	18	22	-1	-1	16	37	-1	-1	-1	11	47	48	-1	-1	-1	31	8	35	45	-1	1	3	44	13	-1	49	20	-1	38	-1	-1	-1	-1	-1	32	12	-1	46	-1
-1	14	-1	-1	-1	12	40	26	-1	-1	-1	-1	-1	15	-1	-1	38	-1	23	41	-1	-1	-1	-1	-1	33	-1	24	-1	10	-1	-1	18	-1	-1	-1	-1	11	-1	17	-1	-1	44	-1	-1	-1	-1	-1	-1
1	-1	19	-1	-1	-1	35	-1	23	-1	-1	37	-1	-1	43	26	22	28	-1	15	-1	29	18	-1	25	-1	30	9	-1	-1	7	5	39	-1	20	16	-1	-1	-1	21	12	-1	49	-1	-1	31	-1	-1	17
48	44	3	-1	8	-1	-1	2	14	28	46	30	-1	-1	-1	-1	-1	-1	5	40	-1	38	-1	-1	-1	19	11	26	-1	21	-1	31	-1	-1	-1	39	-1	-1	-1	7	-1	33	18	43	-1	34	-1	-1	16
-1	25	48	32	-1	26	-1	-1	27	20	-1	15	41	-1	46	-1	44	-1	-1	-1	-1	24	-1	-1	9	17	-1	28	33	49	38	-1	10	2	1	19	-1	31	-1	-1	-1	-1	11	-1	7	-1	39	-1	-1
9	-1	-1	-1	-1	43	27	-1	16	3	-1	4	26	33	42	-1	18	11	38	2	7	-1	-1	19	-1	-1	-1	-1	22	36	45	-1	12	-1	-1	5	-1	-1	39	34	-1	-1	25	-1	15	10	-1	30	24
-1	8	15	-1	-1	-1	37	12	44	-1	21	35	24	-1	-1	-1	49	-1	26	43	-1	-1	1	2	36	-1	-1	25	17	-1	-1	23	40	3	5	-1	-1	38	30	18	-1	48	22	33	-1	29	9	16	34
41	33	12	-1	-1	19	-1	39	-1	5	-1	48	42	28	24	23	27	29	47	25	-1	-1	-1	-1	-1	-1	3	38	-1	18	-1	11	7	14	-1	2	40	21	-1	-1	26	-1	-1	4	35	-1	-1	-1	32
39	3	-1	-1	-1	17	-1	29	34	10	-1	-1	14	-1	45	-1	28	-1	-1	-1	-1	26	-1	31	23	-1	-1	11	-1	-1	4	-1	-1	-1	41	-1	-1	35	-1	27	43	46	40	-1	2	-1	-1	-1	-1
31	18	34	-1	-1	40	38	-1	-1	-1	-1	-1	9	-1	-1	-1	-1	-1	33	36	-1	-1	7	30	5	-1	-1	-1	-1	-1	-1	-1	42	-1	21	13	-1	4	12	24	37	15	-1	-1	-1	-1	-1	27	8
2	13	-1	-1	5	-1	44	43	7	38	-1	-1	23	40	-1	-1	-1	21	-1	-1	-1	-1	48	49	14	-1	-1	4	9	28	-1	6	-1	-1	-1	22	1	-1	29	-1	17	10	-1	47	-1	18	41	-1	12
35	-1	-1	8	-1	-1	-1	1	26	-1	37	-1	7	42	21	-1	-1	-1	-1	31	-1	-1	9	-1	32	-1	-1	-1	2	44	-1	24	20	-1	-1	28	-1	48	5	-1	-1	39	-1	30	-1	14	46	-1	-1
-1	7	10	39	-1	-1	-1	-1	-1	33	-1	-1	-1	9	-1	-1	-1	6	-1	26	28	34	42	8	19	12	-1	-1	5	-1	-1	-1	-1	-1	-1	45	17	14	-1	36	1	-1	20	-1	49	41	24	-1	13
5	21	-1	-1	24	41	16	-1	48	34	-1	43	-1	39	11	-1	15	-1	-1	-1	36	30	20	22	-1	35	47	-1	-1	33	49	-1	-1	-1	8	42	23	40	26	4	-1	-1	27	-1	-1	3	38	-1	10
-1	-1	-1	-1	4	-1	-1	-1	-1	45	-1	-1	-1	19	-1	7	24	1	-1	22	12	10	29	-1	-1	-1	13	33	34	-1	-1	40	6	-1	46	31	-1	-1	-1	37	3	49	-1	15	16	36	-1	42	48
-1	22	42	30	6	-1	-1	-1	3	-1	12	20	-1	-1	9	5	16	38	45	-1	-1	-1	-1	17	-1	-1	41	36	25	-1	-1	-1	-1	21	32	-1	11	8	-1	10	13	43	47	-1	40	-1	1	-1	19
19	43	17	1	3	37	11	-1	-1	36	-1	25	-1	-1	-1	-1	32	44	-1	-1	27	23	-1	-1	-1	-1	49	48	13	38	42	-1	-1	15	45	-1	-1	20	21	12	6	41	5	-1	8	-1	-1	-1	33
46	-1	33	-1	-1	-1	47	11	-1	-1	-1	-1	-1	-1	20	42	43	-1	25	-1	-1	-1	45	5	-1	-1	38	2	-1	-1	36	-1	23	-1	-1	24	-1	-1	7	-1	-1	-1	12	28	-1	-1	-1	-1	18
43	15	30	-1	26	-1	-1	20	-1	18	-1	-1	34	10	49	9	-1	-1	44	-1	-1	39	-1	46	-1	32	25	23	48	-1	40	36	-1	-1	-1	-1	27	-1	3	-1	-1	-1	-1	-1	11	33	-1	1	42
-1	39	-1	-1	-1	33	46	-1	-1	1	-1	26	38	47	22	21	31	-1	-1	-1	-1	18	-1	-1	-1	40	-1	20	-1	15	30	13	-1	5	-1	29	32	37	35	-1	34	19	2	44	-1	7	23	12	-1
8	49	-1	25	-1	44	36	42	-1	-1	39	17	29	-1	41	-1	19	45	15	-1	-1	3	-1	-1	13	-1	48	43	21	16	2	-1	-1	33	18	-1	6	-1	40	1	-1	-1	32	38	-1	-1	22	-1	35
-1	-1	-1	-1	-1	22	-1	-1	-1	23	15	-1	-1	30	1	25	-1	-1	-1	4	17	-1	6	35	-1	34	-1	-1	-1	-1	-1	49	-1	-1	-1	-1	-1	-1	-1	-1	-1	28	13	46	-1	-1	-1	-1	9
16	-1	47	-1	-1	3	18	33	28	-1	-1	-1	36	-1	6	-1	26	-1	-1	35	-1	15	-1	9	-1	29	-1	41	23	37	24	1	34	-1	25	44	-1	-1	22	-1	31	-1	4	17	39	-1	14	49	21
7	4	-1	38	19	2	13	-1	49	-1	35	40	3	-1	-1	28	10	-1	29	48	33	-1	44	24	-1	36	26	5	-1	-1	-1	-1	-1	32	6	-1	-1	-1	16	-1	-1	-1	-1	18	-1	45	-1	-1	43
10	-1	-1	-1	-1	35	-1	-1	32	-1	27	-1	-1	-1	18	40	36	-1	-1	-1	-1	7	49	-1	-1	-1	28	-1	-1	-1	-1	-1	-1	-1	39	4	48	-1	-1	-1	-1	-1	15	-1	-1	25	-1	-1	-1
3	-1	35	-1	34	20	-1	-1	29	22	45	10	2	-1	26	-1	-1	48	-1	-1	19	32	-1	25	-1	-1	18	-1	28	-1	8	-1	-1	37	-1	-1	14	17	4	-1	49	-1	30	39	44	-1	-1	5	11
-1	-1	-1	-1	-1	-1	-1	25	-1	26	23	-1	-1	-1	-1	-1	-1	-1	46	-1	-1	-1	8	-1	-1	-1	-1	17	7	1	-1	33	-1	-1	49	-1	-1	-1	-1	-1	47	38	35	3	27	-1	10	32	-1
44	-1	39	36	17	47	-1	-1	-1	42	20	5	30	-1	33	18	23	43	-1	-1	-1	-1	-1	-1	3	-1	31	13	10	25	6	-1	-1	27	-1	12	28	1	34	29	48	11	7	-1	46	-1	15	-1	-1
-1	31	40	21	-1	-1	10	-1	11	16	43	-1	-1	13	28	35	-1	2	-1	29	-1	4	-1	-1	24	27	-1	-1	-1	32	-1	-1	5	26	3	46	19	-1	-1	-1	-1	-1	-1	20	-1	9	-1	-1	37
-1	-1	-1	-1	-1	-1	-1	31	8	37	-1	-1	15	-1	-1	-1	7	13	-1	-1	25	9	-1	28	22	5	-1	49	-1	42	44	-1	17	-1	-1	10	36	26	-1	-1	-1	-1	38	40	-1	-1	29	48	14
-1	-1	46	-1	-1	1	48	28	-1	27	33	21	47	-1	38	45	40	30	-1	44	-1	36	26	-1	11	43	2	14	19	-1	20	-1	31	-1	-1	-1	-1	32	15	-1	-1	-1	42	-1	-1	24	17	25	49
-1	-1	-1	29	25	13	-1	3	46	35	-1	44	32	-1	37	-1	5	-1	-1	17	-1	40	-1	-1	-1	-1	-1	-1	18	-1	-1	2	-1	-1	22	-1	31	-1	24	-1	30	-1	-1	-1	19	6	28	-1	-1
45	30	32	47	-1	38	42	37	-1	-1	3	-1	-1	23	-1	41	-1	-1	-1	-1	18	5	27	-1	-1	-1	-1	22	-1	8	16	4	21	36	17	-1	-1	9	46	-1	33	29	-1	49	24	-1	-1	7	44
-1	11	49	44	-1	31	-1	-1	-1	-1	-1	7	-1	-1	15	-1	30	-1	-1	23	-1	-1	24	-1	-1	-1	6	39	-1	14	-1	12	37	40	34	21	-1	45	10	42	27	22	19	-1	-1	-1	16	-1	4
18	-1	5	-1	40	24	14	27	13	-1	34	-1	21	48	29	-1	33	39	-1	10	-1	-1	43	-1	41	-1	-1	3	35	-1	25	-1	-1	-1	42	-1	15	12	-1	-1	4	-1	8	9	-1	-1	32	37	-1
-1	-1	9	-1	-1	10	-1	46	47	-1	40	-1	12	38	13	14	-1	-1	24	-1	-1	28	31	1	42	45	32	-1	6	19	33	27	49	-1	11	-1	-1	-1	-1	44	5	36	29	22	41	-1	-1	17	-1
-1	36	7	6	-1	-1	-1	5	-1	39	44	-1	18	-1	40	-1	9	-1	49	27	26	-1	4	-1	46	8	37	-1	31	-1	-1	38	2	-1	48	-1	30	28	14	-1	-1	-1	-1	-1	25	42	12	34	-1
-1	16	27	2	46	-1	-1	41	-1	-1	28	-1	19	22	3	-1	42	7	17	-1	31	35	-1	12	-1	47	-1	-1	-1	30	9	-1	-1	-1	44	1	-1	24	23	-1	-1	18	6	14	-1	-1	33	-1	38
25	-1	-1	-1	-1	4	-1	-1	9	-1	-1	33	6	-1	-1	38	45	-1	1	46	-1	-1	-1	-1	-1	16	10	29	24	5	15	20	-1	-1	-1	-1	39	-1	19	32	40	-1	-1	27	31	-1	-1	-1	28
49 
1 25 28 26
13 47 23 44
6 33 20 18
3 46 22 27
1 40 44 18
30 3 43 17
19 4 46 34
44 11 46 20
35 12 38 33
22 35 47 44
40 6 34 33
43 5 32 29
49 33 41 35
4 17 32 12
18 29 36 32
23 34 1 6
49 42 44 22
23 6 49 34
4 22 22 34
20 21 17 5
23 9 38 44
27 37 28 9
36 36 10 40
38 9 37 18
21 34 6 18
3 7 32 33
14 15 4 18
26 32 7 39
41 32 5 44
35 19 28 40
43 12 29 43
33 2 19 32
42 7 32 39
39 45 49 18
7 25 23 33
48 16 2 24
12 37 2 43
6 23 3 8
28 20 48 29
3 4 27 9
28 10 29 12
10 20 49 11
35 33 40 46
24 28 25 39
33 27 1 39
18 43 1 12
5 20 15 39
46 2 26 6
45 22 28 21
